c Sudoku solution
p cnf 729 0
131 0
152 0
195 0
219 0
224 0
235 0
261 0
369 0
427 0
434 0
472 0
491 0
545 0
355 0
612 0
562 0
654 0
686 0
729 0
776 0
784 0
837 0
856 0
873 0
922 0
332 0
949 0
953 0
981 0
371 0
278 0
257 0
387 0
117 0
418 0
625 0
485 0
459 0
641 0
558 0
667 0
698 0
633 0
539 0
583 0
679 0
738 0
713 0
821 0
936 0
765 0
751 0
511 0
526 0
316 0
296 0
282 0
243 0
446 0
463 0
166 0
747 0
842 0
792 0
975 0
997 0
815 0
914 0
864 0
968 0
577 0
594 0
174 0
393 0
189 0
123 0
328 0
148 0
344 0
888 0
899 0
